src/FALCON/falcon_planner/exploration_utils/resource/coverage_path.tsp
NAME : coverage_path
TYPE : ATSP
DIMENSION : 5
EDGE_WEIGHT_TYPE : EXPLICIT
EDGE_WEIGHT_FORMAT : FULL_MATRIX
EDGE_WEIGHT_SECTION
0 284 248 200832 201726 
0 0 335 523 750 
0 335 0 199 646 
0 523 199 0 456 
0 750 646 456 0 
EOF