src/FALCON/falcon_planner/exploration_utils/resource/coverage_path.txt
NAME : coverage_path.1274.tour
COMMENT : Length = 1274
COMMENT : Found by LKH [Keld Helsgaun] Wed Jun 10 21:07:13 2026
TYPE : TOUR
DIMENSION : 5
TOUR_SECTION
1
2
3
4
5
-1
EOF
